c FILE /home/rafael/Documents/HappySet/MIHS/inputs/happygen/output/graph_scale_free_k20_p0.3_v100_20241127_083927.txt
c SOURCE This is a scale-free graph formed for the happy graph colouring problem.
c DESCRIPTION It was generated using the problem generator of Rhyd Lewis
c
c GRAPH STATS
c Seed                             = 1084485664
c Number of Nodes                  = 100
c Number of colours k              = 20
c Number of pre-assignments        = 30
c Number of links per new node     = 5
c Density                          = 0.0979798
c 
c The degrees of nodes 1 to 100, respectively, are as follows 
c [42, 38, 33, 31, 25, 20, 19, 19, 19, 17, 16, 15, 15, 14, 14, 14, 13, 13, 13, 12, 11, 11, 11, 11, 11, 11, 
c  10, 10, 10, 10, 10, 10, 9, 9, 9, 9, 9, 9, 9, 9, 9, 8, 8, 8, 8, 8, 8, 8, 8, 8, 7, 
c  7, 7, 7, 7, 7, 7, 7, 7, 7, 7, 6, 6, 6, 6, 6, 6, 6, 6, 6, 6, 6, 6, 6, 6, 6, 
c  6, 6, 5, 5, 5, 5, 5, 5, 5, 5, 5, 5, 5, 5, 5, 5, 5, 5, 5, 5, 5, 5, 5, 5] 
c  
p edge 100 485 20
e 1 2
e 1 3
e 1 4
e 1 5
e 1 6
e 1 9
e 1 10
e 1 11
e 1 12
e 1 13
e 1 14
e 1 15
e 1 16
e 1 17
e 1 20
e 1 21
e 1 28
e 1 29
e 1 32
e 1 33
e 1 34
e 1 36
e 1 38
e 1 42
e 1 43
e 1 47
e 1 51
e 1 52
e 1 54
e 1 57
e 1 58
e 1 62
e 1 63
e 1 66
e 1 70
e 1 76
e 1 79
e 1 83
e 1 89
e 1 93
e 1 96
e 1 100
e 2 3
e 2 4
e 2 5
e 2 8
e 2 10
e 2 12
e 2 13
e 2 14
e 2 15
e 2 19
e 2 21
e 2 22
e 2 23
e 2 25
e 2 27
e 2 29
e 2 31
e 2 33
e 2 38
e 2 45
e 2 46
e 2 47
e 2 48
e 2 55
e 2 57
e 2 60
e 2 65
e 2 66
e 2 67
e 2 68
e 2 73
e 2 77
e 2 79
e 2 82
e 2 86
e 2 95
e 2 97
e 3 4
e 3 5
e 3 7
e 3 8
e 3 9
e 3 10
e 3 12
e 3 14
e 3 16
e 3 17
e 3 21
e 3 22
e 3 23
e 3 29
e 3 30
e 3 32
e 3 35
e 3 42
e 3 43
e 3 44
e 3 49
e 3 53
e 3 55
e 3 64
e 3 70
e 3 81
e 3 82
e 3 84
e 3 87
e 3 94
e 3 97
e 4 5
e 4 7
e 4 11
e 4 12
e 4 13
e 4 14
e 4 15
e 4 17
e 4 18
e 4 20
e 4 22
e 4 25
e 4 27
e 4 28
e 4 33
e 4 34
e 4 36
e 4 37
e 4 41
e 4 43
e 4 44
e 4 50
e 4 56
e 4 60
e 4 64
e 4 76
e 4 95
e 4 96
e 5 6
e 5 7
e 5 9
e 5 10
e 5 11
e 5 12
e 5 14
e 5 16
e 5 19
e 5 21
e 5 23
e 5 24
e 5 32
e 5 36
e 5 46
e 5 56
e 5 63
e 5 77
e 5 85
e 5 91
e 5 100
e 6 7
e 6 10
e 6 18
e 6 21
e 6 24
e 6 25
e 6 26
e 6 33
e 6 35
e 6 42
e 6 52
e 6 53
e 6 57
e 6 67
e 6 68
e 6 83
e 6 85
e 6 98
e 7 10
e 7 11
e 7 13
e 7 14
e 7 20
e 7 22
e 7 23
e 7 25
e 7 27
e 7 34
e 7 52
e 7 57
e 7 62
e 7 64
e 7 83
e 8 9
e 8 10
e 8 11
e 8 14
e 8 18
e 8 20
e 8 22
e 8 25
e 8 30
e 8 35
e 8 36
e 8 41
e 8 44
e 8 50
e 8 53
e 8 56
e 8 58
e 9 13
e 9 31
e 9 39
e 9 41
e 9 46
e 9 48
e 9 51
e 9 62
e 9 75
e 9 82
e 9 83
e 9 84
e 9 89
e 9 91
e 9 100
e 10 12
e 10 16
e 10 20
e 10 45
e 10 51
e 10 59
e 10 70
e 10 71
e 10 78
e 10 93
e 11 19
e 11 34
e 11 37
e 11 38
e 11 52
e 11 54
e 11 64
e 11 87
e 11 92
e 11 93
e 11 94
e 12 15
e 12 17
e 12 22
e 12 24
e 12 44
e 12 47
e 12 53
e 12 56
e 12 62
e 13 15
e 13 21
e 13 28
e 13 29
e 13 35
e 13 40
e 13 42
e 13 67
e 13 84
e 13 87
e 14 17
e 14 18
e 14 21
e 14 34
e 14 45
e 14 63
e 14 72
e 15 23
e 15 26
e 15 31
e 15 40
e 15 51
e 15 52
e 15 53
e 15 59
e 15 69
e 16 17
e 16 43
e 16 50
e 16 61
e 16 66
e 16 69
e 16 73
e 16 74
e 16 79
e 16 81
e 17 35
e 17 46
e 17 58
e 17 85
e 17 88
e 17 96
e 17 100
e 18 23
e 18 28
e 18 44
e 18 55
e 18 59
e 18 61
e 18 62
e 18 67
e 18 71
e 19 29
e 19 30
e 19 53
e 19 60
e 19 69
e 19 74
e 19 80
e 19 92
e 19 98
e 19 99
e 20 24
e 20 27
e 20 37
e 20 48
e 20 64
e 20 85
e 20 94
e 21 39
e 21 55
e 21 61
e 21 99
e 22 42
e 22 43
e 22 50
e 22 74
e 22 88
e 23 24
e 23 29
e 23 37
e 23 54
e 23 80
e 24 26
e 24 33
e 24 51
e 24 55
e 24 68
e 24 79
e 25 31
e 25 40
e 25 69
e 25 72
e 25 75
e 25 90
e 26 30
e 26 32
e 26 36
e 26 40
e 26 41
e 26 73
e 26 82
e 26 85
e 27 42
e 27 45
e 27 54
e 27 82
e 27 87
e 27 95
e 28 38
e 28 51
e 28 66
e 28 84
e 28 86
e 28 98
e 29 31
e 29 38
e 29 57
e 29 68
e 30 37
e 30 39
e 30 46
e 30 49
e 30 65
e 30 91
e 31 89
e 31 90
e 31 93
e 31 95
e 31 100
e 32 39
e 32 67
e 32 73
e 32 78
e 32 90
e 32 95
e 33 45
e 33 48
e 33 71
e 33 79
e 34 58
e 34 76
e 34 88
e 34 91
e 35 46
e 35 72
e 35 74
e 35 97
e 36 45
e 36 47
e 36 70
e 36 89
e 37 45
e 37 58
e 37 73
e 37 80
e 38 65
e 38 68
e 38 71
e 38 91
e 39 43
e 39 63
e 39 72
e 39 86
e 39 93
e 40 55
e 40 78
e 40 83
e 40 88
e 40 98
e 41 48
e 41 58
e 41 59
e 41 77
e 41 88
e 42 50
e 42 87
e 43 77
e 43 80
e 44 49
e 44 59
e 44 92
e 45 63
e 46 49
e 46 81
e 47 57
e 47 65
e 47 81
e 47 98
e 48 76
e 48 86
e 48 97
e 49 56
e 49 78
e 49 94
e 49 99
e 50 60
e 50 94
e 50 99
e 51 97
e 52 60
e 52 66
e 53 54
e 54 56
e 54 65
e 55 74
e 56 80
e 57 81
e 58 71
e 59 70
e 59 90
e 60 75
e 60 86
e 61 64
e 61 73
e 61 75
e 61 89
e 62 63
e 65 92
e 66 84
e 67 69
e 68 72
e 69 76
e 70 77
e 71 75
e 72 78
e 74 92
e 75 96
e 76 90
e 77 96
e 78 99
n 11 17
n 14 4
n 27 4
n 31 7
n 32 3
n 44 6
n 45 4
n 46 12
n 47 11
n 48 9
n 51 13
n 55 10
n 56 16
n 58 5
n 61 15
n 62 4
n 63 4
n 65 11
n 66 14
n 68 1
n 69 2
n 70 18
n 71 5
n 83 8
n 85 20
n 86 9
n 88 4
n 98 11
n 99 19
n 100 7
